0
Node Left Objective IInf Best_Integer Best_Bound ItCnt Gap
0+ 0 nan nan 34161.4517 -3416.1452 nan 110.00%
0+ 0 nan nan -9.1115 -3416.1452 nan ---
0 0 -272.2296 18 -9.1115 -272.2296 107 ---
0 0 -271.5071 17 -9.1115 Cuts:12 132 ---
0+ 0 nan nan -243.0290 -271.5071 nan 11.72%
0 0 -270.2955 20 -243.0290 Cuts:25 152 11.22%
0 0 -269.8109 18 -243.0290 Cuts:30 171 11.02%
0 0 -269.4695 18 -243.0290 Cuts:32 197 10.88%
0 0 -269.3335 23 -243.0290 Cuts:22 216 10.82%
0+ 0 nan nan -253.3077 -269.3335 nan 6.33%
0 0 -269.2718 22 -253.3077 Cuts:26 237 6.30%
0 0 -269.0934 22 -253.3077 Cuts:25 264 6.23%
0 0 -269.0613 24 -253.3077 LiftProj:13 277 6.22%
0 0 -268.6582 22 -253.3077 Cuts:37 304 6.06%
0 0 -268.5750 23 -253.3077 LiftProj:13 314 6.03%
0 0 -268.1003 26 -253.3077 LiftProj:21 343 5.84%
0 0 -268.0198 24 -253.3077 Cuts:23 357 5.81%
0 0 -267.7435 23 -253.3077 LiftProj:16 374 5.70%
0 0 -267.6159 25 -253.3077 Cuts:18 385 5.65%
0 0 -267.4123 27 -253.3077 LiftProj:25 410 5.57%
0 0 -267.2479 28 -253.3077 LiftProj:10 449 5.50%
0 0 -267.2135 26 -253.3077 Cuts:18 459 5.49%
0 0 -267.2135 21 -253.3077 Cuts:10 468 5.49%
0 2 -267.2135 21 -253.3077 -267.1197 468 5.45%
CPXPARAM_MIP_Cuts_Gomory-Disjunctive-LiftProj:Gomory 18
CPXPARAM_MIP_Cuts_Gomory-Disjunctive-LiftProj:Disjunctive 2
CPXPARAM_MIP_Cuts_Gomory-Disjunctive-LiftProj:LiftProj 0
1
Node Left Objective IInf Best_Integer Best_Bound ItCnt Gap
0+ 0 nan nan 35615.1100 -3561.5110 nan 110.00%
0+ 0 nan nan -13.9570 -3561.5110 nan ---
0 0 -961.6080 24 -13.9570 -961.6080 119 ---
0+ 0 nan nan -929.6071 -961.6080 nan 3.44%
0 0 -961.6080 23 -929.6071 Cuts:8 154 3.44%
0+ 0 nan nan -934.9141 -961.6080 nan 2.86%
0 0 -961.6080 24 -934.9141 Cuts:19 184 2.86%
0+ 0 nan nan -939.1232 -961.6080 nan 2.39%
0+ 0 nan nan -941.4687 -961.6080 nan 2.14%
0 2 -961.6080 23 -941.4687 -961.6080 184 2.14%
CPXPARAM_MIP_Cuts_Gomory-Disjunctive-LiftProj:Gomory 0
CPXPARAM_MIP_Cuts_Gomory-Disjunctive-LiftProj:Disjunctive 1
CPXPARAM_MIP_Cuts_Gomory-Disjunctive-LiftProj:LiftProj 0
2
Node Left Objective IInf Best_Integer Best_Bound ItCnt Gap
0+ 0 nan nan 43985.9344 -4398.5934 nan 110.00%
0 0 -370.4744 15 43985.9344 -370.4744 120 100.84%
0+ 0 nan nan 77.4880 -370.4744 nan 578.11%
0 0 -370.4744 17 77.4880 Cuts:9 147 578.11%
0+ 0 nan nan -65.7985 -370.4744 nan 463.04%
0 0 -369.1763 25 -65.7985 Cuts:27 173 461.07%
0+ 0 nan nan -68.1263 -369.1763 nan 441.90%
0 0 -368.4389 26 -68.1263 Cuts:28 197 440.82%
0 0 -368.1175 27 -68.1263 Cuts:26 204 440.35%
0 0 -367.4471 29 -68.1263 Cuts:22 219 439.36%
0+ 0 nan nan -68.5464 -367.4471 nan 436.06%
0 0 -366.9848 30 -68.5464 Cuts:16 240 435.38%
0 0 -366.5623 30 -68.5464 LiftProj:17 258 434.76%
0 0 -366.4778 30 -68.5464 Cuts:17 271 434.64%
0 0 -366.2244 30 -68.5464 Cuts:17 281 434.27%
0 0 -366.0155 31 -68.5464 LiftProj:15 296 433.97%
0 0 -365.6938 30 -68.5464 Cuts:15 316 433.50%
0 0 -365.5047 31 -68.5464 Cuts:22 335 433.22%
0 0 -365.1001 30 -68.5464 Cuts:19 358 432.63%
0 0 -364.6776 32 -68.5464 LiftProj:18 380 432.02%
0 0 -364.3609 32 -68.5464 LiftProj:12 396 431.55%
0 0 -364.0387 30 -68.5464 LiftProj:17 416 431.08%
0+ 0 nan nan -69.5834 -364.0387 nan 423.17%
0 0 -363.8917 32 -69.5834 LiftProj:17 428 422.96%
0 0 -363.6203 32 -69.5834 LiftProj:10 445 422.57%
0 0 -363.2105 31 -69.5834 LiftProj:13 469 421.98%
0 0 -363.1047 31 -69.5834 LiftProj:11 485 421.83%
0 0 -363.0243 33 -69.5834 Cuts:17 491 421.71%
0 0 -362.9606 33 -69.5834 LiftProj:7 498 421.62%
0+ 0 nan nan -345.3608 -362.9606 nan 5.10%
0+ 0 nan nan -349.7763 -362.9606 nan 3.77%
0 2 -362.9606 32 -349.7763 -362.9359 498 3.76%
CPXPARAM_MIP_Cuts_Gomory-Disjunctive-LiftProj:Gomory 33
CPXPARAM_MIP_Cuts_Gomory-Disjunctive-LiftProj:Disjunctive 0
CPXPARAM_MIP_Cuts_Gomory-Disjunctive-LiftProj:LiftProj 0
3
Node Left Objective IInf Best_Integer Best_Bound ItCnt Gap
0+ 0 nan nan 30261.1198 -3026.1120 nan 110.00%
0+ 0 nan nan -27.8385 -3026.1120 nan ---
0 0 -817.0502 21 -27.8385 -817.0502 123 ---
0+ 0 nan nan -500.5414 -817.0502 nan 63.23%
0 0 -817.0502 20 -500.5414 Cuts:6 132 63.23%
0+ 0 nan nan -503.0172 -817.0502 nan 62.43%
0 0 -817.0502 21 -503.0172 Cuts:20 157 62.43%
0+ 0 nan nan -607.7307 -817.0502 nan 34.44%
0 0 -817.0502 19 -607.7307 Cuts:16 176 34.44%
0+ 0 nan nan -705.3737 -817.0502 nan 15.83%
0+ 0 nan nan -797.5466 -817.0502 nan 2.45%
0+ 0 nan nan -800.8789 -817.0502 nan 2.02%
0 2 -817.0502 18 -800.8789 -817.0502 176 2.02%
CPXPARAM_MIP_Cuts_Gomory-Disjunctive-LiftProj:Gomory 0
CPXPARAM_MIP_Cuts_Gomory-Disjunctive-LiftProj:Disjunctive 2
CPXPARAM_MIP_Cuts_Gomory-Disjunctive-LiftProj:LiftProj 0
4
Node Left Objective IInf Best_Integer Best_Bound ItCnt Gap
0+ 0 nan nan 34458.7280 -3445.8728 nan 110.00%
0 0 -264.7419 14 34458.7280 -264.7419 108 100.77%
0+ 0 nan nan -234.8089 -264.7419 nan 12.75%
0 0 -264.6472 24 -234.8089 Cuts:15 143 12.71%
0+ 0 nan nan -248.4506 -264.6472 nan 6.52%
0 0 -264.1320 23 -248.4506 Cuts:25 158 6.31%
0 0 -263.8705 27 -248.4506 Cuts:21 184 6.21%
0 0 -263.5210 28 -248.4506 Cuts:33 204 6.07%
0+ 0 nan nan -252.4125 -263.5210 nan 4.40%
0 0 -263.3630 32 -252.4125 Cuts:27 234 4.34%
0 0 -263.2675 34 -252.4125 Cuts:14 248 4.30%
0 0 -263.2270 33 -252.4125 Cuts:10 260 4.28%
0 0 -263.2125 33 -252.4125 Cuts:6 266 4.28%
0 0 -263.1719 29 -252.4125 LiftProj:6 274 4.26%
0 0 -263.1387 28 -252.4125 LiftProj:3 283 4.25%
0+ 0 nan nan -253.2314 -263.1387 nan 3.91%
0 0 -263.1341 28 -253.2314 LiftProj:2 289 3.91%
0 2 -263.1341 25 -253.2314 -263.1285 289 3.91%
CPXPARAM_MIP_Cuts_Gomory-Disjunctive-LiftProj:Gomory 10
CPXPARAM_MIP_Cuts_Gomory-Disjunctive-LiftProj:Disjunctive 3
CPXPARAM_MIP_Cuts_Gomory-Disjunctive-LiftProj:LiftProj 5
5
Node Left Objective IInf Best_Integer Best_Bound ItCnt Gap
0+ 0 nan nan 38594.8151 -3859.4815 nan 110.00%
0 0 -1042.0600 24 38594.8151 -1042.0600 131 102.70%
0+ 0 nan nan -643.5865 -1042.0600 nan 61.91%
0 0 -1042.0600 21 -643.5865 Disjcuts:1 135 61.91%
0+ 0 nan nan -659.3828 -1042.0600 nan 58.04%
0 0 -1042.0600 22 -659.3828 Cuts:31 176 58.04%
0+ 0 nan nan -904.8430 -1042.0600 nan 15.16%
0+ 0 nan nan -1023.2245 -1042.0600 nan 1.84%
0 2 -1042.0600 19 -1023.2245 -1042.0600 176 1.84%
CPXPARAM_MIP_Cuts_Gomory-Disjunctive-LiftProj:Gomory 0
CPXPARAM_MIP_Cuts_Gomory-Disjunctive-LiftProj:Disjunctive 0
CPXPARAM_MIP_Cuts_Gomory-Disjunctive-LiftProj:LiftProj 0
6
Node Left Objective IInf Best_Integer Best_Bound ItCnt Gap
0+ 0 nan nan 34567.3714 -3456.7371 nan 110.00%
0 0 -265.8283 10 34567.3714 -265.8283 105 100.77%
0+ 0 nan nan -259.1378 -265.8283 nan 2.58%
0 0 -265.8283 9 -259.1378 Cuts:5 118 2.58%
0+ 0 nan nan -260.0244 -265.8283 nan 2.23%
0 0 -265.8027 21 -260.0244 Cuts:15 144 2.22%
0 0 -265.4611 24 -260.0244 Cuts:32 159 2.09%
0 0 -265.1748 25 -260.0244 Cuts:24 177 1.98%
0 0 -264.9489 23 -260.0244 Cuts:24 196 1.89%
0 0 -264.9089 24 -260.0244 LiftProj:7 203 1.88%
0 0 -264.8708 23 -260.0244 Cuts:13 212 1.86%
0 0 -264.8462 24 -260.0244 LiftProj:11 222 1.85%
0 0 -264.7725 23 -260.0244 Cuts:15 237 1.83%
0 0 -264.7566 24 -260.0244 LiftProj:7 244 1.82%
0+ 0 nan nan -260.4794 -264.7566 nan 1.64%
0 0 -264.7251 25 -260.4794 LiftProj:9 252 1.63%
0 0 -264.6962 25 -260.4794 LiftProj:9 264 1.62%
0+ 0 nan nan -260.4794 -264.6962 nan 1.62%
0 0 -264.4978 11 -260.4794 -264.4978 383 1.54%
0 0 -264.4046 12 -260.4794 Cuts:15 396 1.51%
0 0 -264.1913 12 -260.4794 LiftProj:14 405 1.43%
0 0 -264.1058 12 -260.4794 Cuts:9 415 1.39%
0 0 -263.9883 12 -260.4794 LiftProj:7 420 1.35%
0 0 -263.9506 12 -260.4794 LiftProj:11 427 1.33%
0 0 -263.7896 12 -260.4794 Cuts:15 438 1.27%
0 0 -263.6478 12 -260.4794 Cuts:12 446 1.22%
0 0 -263.3586 12 -260.4794 Cuts:10 460 1.11%
0 0 -263.2621 11 -260.4794 LiftProj:6 472 1.07%
0 0 -263.1959 12 -260.4794 LiftProj:15 480 1.04%
0 0 -263.1748 12 -260.4794 LiftProj:7 485 1.03%
0 0 -263.0606 11 -260.4794 LiftProj:6 500 0.99%
0 0 -263.0240 12 -260.4794 LiftProj:8 509 0.98%
0 0 -262.9480 12 -260.4794 LiftProj:16 523 0.95%
0 0 -262.9356 12 -260.4794 LiftProj:8 526 0.94%
0+ 0 nan nan -260.6646 -262.9356 nan 0.87%
0 2 -262.8542 10 -260.6646 -262.7814 526 0.81%
CPXPARAM_MIP_Cuts_Gomory-Disjunctive-LiftProj:Gomory 20
CPXPARAM_MIP_Cuts_Gomory-Disjunctive-LiftProj:Disjunctive 1
CPXPARAM_MIP_Cuts_Gomory-Disjunctive-LiftProj:LiftProj 0
7
Node Left Objective IInf Best_Integer Best_Bound ItCnt Gap
0+ 0 nan nan 37478.4256 -3747.8426 nan 110.00%
0 0 -1011.9175 20 37478.4256 -1011.9175 132 102.70%
0+ 0 nan nan -758.7340 -1011.9175 nan 33.37%
0 0 -1011.9175 18 -758.7340 Cuts:4 146 33.37%
0+ 0 nan nan -1000.2039 -1011.9175 nan 1.17%
0 0 -1011.9175 21 -1000.2039 Cuts:29 194 1.17%
0+ 0 nan nan -1002.0883 -1011.9175 nan 0.98%
0 2 -1011.9175 16 -1002.0883 -1011.9175 194 0.98%
CPXPARAM_MIP_Cuts_Gomory-Disjunctive-LiftProj:Gomory 0
CPXPARAM_MIP_Cuts_Gomory-Disjunctive-LiftProj:Disjunctive 0
CPXPARAM_MIP_Cuts_Gomory-Disjunctive-LiftProj:LiftProj 0
8
Node Left Objective IInf Best_Integer Best_Bound ItCnt Gap
0+ 0 nan nan 40648.0270 -4064.8027 nan 110.00%
0 0 -308.3092 15 40648.0270 -308.3092 100 100.76%
0+ 0 nan nan -16.3935 -308.3092 nan ---
0 0 -308.3092 19 -16.3935 Cuts:18 129 ---
0+ 0 nan nan -19.2777 -308.3092 nan ---
0 0 -307.9303 17 -19.2777 Cuts:23 144 ---
0+ 0 nan nan -154.5291 -307.9303 nan 99.27%
0 0 -307.3915 23 -154.5291 Cuts:21 163 98.92%
0+ 0 nan nan -158.3898 -307.3915 nan 94.07%
0 0 -307.3260 30 -158.3898 Cuts:34 191 94.03%
0+ 0 nan nan -159.3153 -307.3260 nan 92.90%
0 0 -307.2656 33 -159.3153 Cuts:29 210 92.87%
0+ 0 nan nan -164.4326 -307.2656 nan 86.86%
0 0 -307.2543 33 -164.4326 Cuts:14 222 86.86%
0+ 0 nan nan -282.7798 -307.2543 nan 8.65%
0+ 0 nan nan -286.1149 -307.2543 nan 7.39%
0+ 0 nan nan -296.1822 -307.2543 nan 3.74%
0 2 -307.2543 32 -296.1822 -307.2482 222 3.74%
CPXPARAM_MIP_Cuts_Gomory-Disjunctive-LiftProj:Gomory 8
CPXPARAM_MIP_Cuts_Gomory-Disjunctive-LiftProj:Disjunctive 5
CPXPARAM_MIP_Cuts_Gomory-Disjunctive-LiftProj:LiftProj 16
9
Node Left Objective IInf Best_Integer Best_Bound ItCnt Gap
0+ 0 nan nan 39148.7823 -3914.8782 nan 110.00%
0 0 -1057.0171 26 39148.7823 -1057.0171 128 102.70%
0+ 0 nan nan -983.3068 -1057.0171 nan 7.50%
0+ 0 nan nan -1024.0985 -1057.0171 nan 3.21%
0 2 -1057.0171 25 -1024.0985 -1057.0171 128 3.21%
CPXPARAM_MIP_Cuts_Gomory-Disjunctive-LiftProj:Gomory 0
CPXPARAM_MIP_Cuts_Gomory-Disjunctive-LiftProj:Disjunctive 0
CPXPARAM_MIP_Cuts_Gomory-Disjunctive-LiftProj:LiftProj 0
10
Node Left Objective IInf Best_Integer Best_Bound ItCnt Gap
0+ 0 nan nan 54374.6429 -5437.4643 nan 110.00%
0 0 -445.5754 15 54374.6429 -445.5754 114 100.82%
0+ 0 nan nan -60.9481 -445.5754 nan 631.07%
0 0 -445.5754 14 -60.9481 Cuts:10 132 631.07%
0+ 0 nan nan -72.0939 -445.5754 nan 518.05%
0 0 -445.4787 20 -72.0939 Cuts:19 154 517.91%
0+ 0 nan nan -78.1507 -445.4787 nan 470.03%
0 0 -444.5193 22 -78.1507 Cuts:28 171 468.80%
0 0 -443.7378 23 -78.1507 Cuts:18 181 467.80%
0 0 -443.3754 27 -78.1507 Cuts:25 197 467.33%
0+ 0 nan nan -79.1104 -443.3754 nan 460.45%
0 0 -443.2149 29 -79.1104 Cuts:16 208 460.25%
0 0 -442.8987 28 -79.1104 Cuts:15 224 459.85%
0 0 -442.6873 30 -79.1104 Cuts:15 235 459.58%
0 0 -442.3721 29 -79.1104 Cuts:16 254 459.18%
0 0 -441.9135 30 -79.1104 Cuts:15 273 458.60%
0 0 -441.7227 29 -79.1104 LiftProj:13 284 458.36%
0 0 -441.6399 30 -79.1104 LiftProj:12 296 458.26%
0 0 -441.4502 29 -79.1104 LiftProj:14 308 458.02%
0 0 -441.3858 32 -79.1104 LiftProj:11 313 457.94%
0 0 -440.6420 29 -79.1104 LiftProj:9 327 457.00%
0 0 -440.5329 31 -79.1104 LiftProj:12 333 456.86%
0 0 -440.2856 29 -79.1104 LiftProj:16 346 456.55%
0 0 -440.1518 31 -79.1104 LiftProj:12 355 456.38%
0 0 -439.5182 30 -79.1104 LiftProj:13 378 455.58%
0 0 -439.1129 31 -79.1104 LiftProj:12 391 455.06%
0 0 -439.0626 31 -79.1104 LiftProj:7 400 455.00%
0 0 -438.7600 30 -79.1104 LiftProj:7 416 454.62%
0 0 -438.7008 30 -79.1104 LiftProj:8 421 454.54%
0+ 0 nan nan -252.7442 -438.7008 nan 73.58%
0+ 0 nan nan -418.0390 -438.7008 nan 4.94%
0+ 0 nan nan -423.9766 -438.7008 nan 3.47%
0 2 -438.7008 30 -423.9766 -438.6431 421 3.46%
CPXPARAM_MIP_Cuts_Gomory-Disjunctive-LiftProj:Gomory 30
CPXPARAM_MIP_Cuts_Gomory-Disjunctive-LiftProj:Disjunctive 0
CPXPARAM_MIP_Cuts_Gomory-Disjunctive-LiftProj:LiftProj 0
11
Node Left Objective IInf Best_Integer Best_Bound ItCnt Gap
0+ 0 nan nan 44941.4154 -4494.1415 nan 110.00%
0 0 -1213.4182 21 44941.4154 -1213.4182 124 102.70%
0+ 0 nan nan -885.8560 -1213.4182 nan 36.98%
0 0 -1213.4182 18 -885.8560 Disjcuts:2 128 36.98%
0+ 0 nan nan -1038.7827 -1213.4182 nan 16.81%
0 0 -1213.4182 21 -1038.7827 Cuts:30 161 16.81%
0 0 -1213.4182 21 -1038.7827 Cuts:29 211 16.81%
0+ 0 nan nan -1176.7243 -1213.4182 nan 3.12%
0+ 0 nan nan -1181.9409 -1213.4182 nan 2.66%
0+ 0 nan nan -1183.5291 -1213.4182 nan 2.53%
0 2 -1213.4182 17 -1183.5291 -1213.4182 211 2.53%
CPXPARAM_MIP_Cuts_Gomory-Disjunctive-LiftProj:Gomory 0
CPXPARAM_MIP_Cuts_Gomory-Disjunctive-LiftProj:Disjunctive 1
CPXPARAM_MIP_Cuts_Gomory-Disjunctive-LiftProj:LiftProj 0
12
Node Left Objective IInf Best_Integer Best_Bound ItCnt Gap
0+ 0 nan nan 42580.0140 -4258.0014 nan 110.00%
0 0 -346.6810 17 42580.0140 -346.6810 121 100.81%
0+ 0 nan nan -162.2690 -346.6810 nan 113.65%
0 0 -346.0424 18 -162.2690 Cuts:20 147 113.25%
0+ 0 nan nan -310.5479 -346.0424 nan 11.43%
0 0 -344.8086 21 -310.5479 Cuts:28 165 11.03%
0 0 -343.9174 20 -310.5479 Cuts:26 188 10.75%
0+ 0 nan nan -321.5466 -343.9174 nan 6.96%
0 0 -343.5739 29 -321.5466 Cuts:33 222 6.85%
0 0 -343.1581 26 -321.5466 Cuts:32 242 6.72%
0 0 -343.0574 29 -321.5466 Cuts:13 253 6.69%
0 0 -342.8758 28 -321.5466 Cuts:17 282 6.63%
0 0 -342.8519 29 -321.5466 LiftProj:14 311 6.63%
0 0 -342.8410 28 -321.5466 Cuts:17 332 6.62%
0+ 0 nan nan -324.6809 -342.8410 nan 5.59%
0 2 -342.8410 27 -324.6809 -342.7772 332 5.57%
CPXPARAM_MIP_Cuts_Gomory-Disjunctive-LiftProj:Gomory 8
CPXPARAM_MIP_Cuts_Gomory-Disjunctive-LiftProj:Disjunctive 2
CPXPARAM_MIP_Cuts_Gomory-Disjunctive-LiftProj:LiftProj 8
13
Node Left Objective IInf Best_Integer Best_Bound ItCnt Gap
0+ 0 nan nan 37422.3656 -3742.2366 nan 110.00%
0 0 -1010.4039 26 37422.3656 -1010.4039 127 102.70%
0+ 0 nan nan -705.3729 -1010.4039 nan 43.24%
0+ 0 nan nan -835.0344 -1010.4039 nan 21.00%
0+ 0 nan nan -960.5667 -1010.4039 nan 5.19%
0+ 0 nan nan -963.1022 -1010.4039 nan 4.91%
0 2 -1010.4039 22 -963.1022 -1010.4039 127 4.91%
CPXPARAM_MIP_Cuts_Gomory-Disjunctive-LiftProj:Gomory 0
CPXPARAM_MIP_Cuts_Gomory-Disjunctive-LiftProj:Disjunctive 0
CPXPARAM_MIP_Cuts_Gomory-Disjunctive-LiftProj:LiftProj 0
14
Node Left Objective IInf Best_Integer Best_Bound ItCnt Gap
0+ 0 nan nan 45478.3676 -4547.8368 nan 110.00%
0+ 0 nan nan -71.5867 -4547.8368 nan ---
0 0 -375.6645 14 -71.5867 -375.6645 118 424.77%
0+ 0 nan nan -210.9861 -375.6645 nan 78.05%
0 0 -375.6645 15 -210.9861 Cuts:7 143 78.05%
0 0 -374.5720 24 -210.9861 Cuts:16 174 77.53%
0+ 0 nan nan -215.8596 -374.5720 nan 73.53%
0 0 -373.9988 23 -215.8596 Cuts:15 190 73.26%
0 0 -373.6612 24 -215.8596 Cuts:12 200 73.10%
0 0 -373.2728 25 -215.8596 Cuts:16 217 72.92%
0 0 -373.1707 24 -215.8596 Cuts:12 229 72.88%
0 0 -373.0015 26 -215.8596 LiftProj:10 241 72.80%
0 0 -372.7980 27 -215.8596 LiftProj:9 257 72.70%
0 0 -372.4036 30 -215.8596 Cuts:12 281 72.52%
0 0 -371.9800 27 -215.8596 Cuts:18 296 72.32%
0 0 -371.9737 30 -215.8596 LiftProj:11 302 72.32%
0+ 0 nan nan -352.8235 -371.9737 nan 5.43%
0+ 0 nan nan -356.6094 -371.9737 nan 4.31%
0 2 -371.9737 29 -356.6094 -371.9727 302 4.31%
CPXPARAM_MIP_Cuts_Gomory-Disjunctive-LiftProj:Gomory 16
CPXPARAM_MIP_Cuts_Gomory-Disjunctive-LiftProj:Disjunctive 3
CPXPARAM_MIP_Cuts_Gomory-Disjunctive-LiftProj:LiftProj 0
15
Node Left Objective IInf Best_Integer Best_Bound ItCnt Gap
0+ 0 nan nan 40586.2473 -4058.6247 nan 110.00%
0+ 0 nan nan -55.2796 -4058.6247 nan ---
0 0 -1095.8287 21 -55.2796 -1095.8287 127 ---
0+ 0 nan nan -810.7899 -1095.8287 nan 35.16%
0 0 -1095.8287 19 -810.7899 Cuts:2 129 35.16%
0+ 0 nan nan -935.8588 -1095.8287 nan 17.09%
0 0 -1095.8287 20 -935.8588 Cuts:29 161 17.09%
0+ 0 nan nan -937.0561 -1095.8287 nan 16.94%
0 0 -1095.8287 18 -937.0561 Cuts:3 164 16.94%
0+ 0 nan nan -938.8738 -1095.8287 nan 16.72%
0+ 0 nan nan -1071.1043 -1095.8287 nan 2.31%
0+ 0 nan nan -1074.4724 -1095.8287 nan 1.99%
0 2 -1095.8287 16 -1074.4724 -1095.8287 164 1.99%
CPXPARAM_MIP_Cuts_Gomory-Disjunctive-LiftProj:Gomory 0
CPXPARAM_MIP_Cuts_Gomory-Disjunctive-LiftProj:Disjunctive 1
CPXPARAM_MIP_Cuts_Gomory-Disjunctive-LiftProj:LiftProj 0
16
Node Left Objective IInf Best_Integer Best_Bound ItCnt Gap
0+ 0 nan nan 43744.3909 -4374.4391 nan 110.00%
0 0 -350.8553 16 43744.3909 -350.8553 106 100.80%
0+ 0 nan nan -164.1045 -350.8553 nan 113.80%
0 0 -350.8539 22 -164.1045 Cuts:23 138 113.80%
0+ 0 nan nan -182.6710 -350.8539 nan 92.07%
0 0 -349.7638 30 -182.6710 Cuts:26 158 91.47%
0 0 -349.2882 29 -182.6710 Cuts:23 178 91.21%
0+ 0 nan nan -186.7215 -349.2882 nan 87.06%
0 0 -349.0889 31 -186.7215 Cuts:22 192 86.96%
0+ 0 nan nan -189.2636 -349.0889 nan 84.45%
0 0 -348.8349 35 -189.2636 Cuts:24 217 84.31%
0 0 -348.7620 35 -189.2636 Cuts:11 226 84.27%
0 0 -348.3892 34 -189.2636 Cuts:21 253 84.08%
0 0 -348.3005 34 -189.2636 Cuts:15 261 84.03%
0 0 -348.2667 35 -189.2636 LiftProj:18 270 84.01%
0 0 -348.1667 35 -189.2636 LiftProj:16 285 83.96%
0 0 -348.0318 36 -189.2636 Cuts:13 299 83.89%
0 0 -347.8970 34 -189.2636 Cuts:16 309 83.82%
0 0 -347.8015 37 -189.2636 Cuts:21 321 83.77%
0 0 -347.8015 37 -189.2636 LiftProj:10 323 83.77%
0+ 0 nan nan -328.6935 -347.8015 nan 5.81%
0 2 -347.8015 37 -328.6935 -347.7630 323 5.80%
CPXPARAM_MIP_Cuts_Gomory-Disjunctive-LiftProj:Gomory 24
CPXPARAM_MIP_Cuts_Gomory-Disjunctive-LiftProj:Disjunctive 3
CPXPARAM_MIP_Cuts_Gomory-Disjunctive-LiftProj:LiftProj 5
17
Node Left Objective IInf Best_Integer Best_Bound ItCnt Gap
0+ 0 nan nan 33279.2221 -3327.9222 nan 110.00%
0+ 0 nan nan -3.4967 -3327.9222 nan ---
0 0 -898.5390 26 -3.4967 -898.5390 128 ---
0+ 0 nan nan -737.6936 -898.5390 nan 21.80%
0 0 -898.5390 25 -737.6936 Cuts:4 131 21.80%
0 0 -898.5390 27 -737.6936 Cuts:38 161 21.80%
0 0 -898.5390 25 -737.6936 Cuts:12 194 21.80%
0+ 0 nan nan -858.6741 -898.5390 nan 4.64%
0+ 0 nan nan -869.3145 -898.5390 nan 3.36%
0 2 -898.5390 25 -869.3145 -898.5390 194 3.36%
CPXPARAM_MIP_Cuts_Gomory-Disjunctive-LiftProj:Gomory 3
CPXPARAM_MIP_Cuts_Gomory-Disjunctive-LiftProj:Disjunctive 1
CPXPARAM_MIP_Cuts_Gomory-Disjunctive-LiftProj:LiftProj 0
18
Node Left Objective IInf Best_Integer Best_Bound ItCnt Gap
0+ 0 nan nan 37643.8042 -3764.3804 nan 110.00%
0 0 -289.8495 10 37643.8042 -289.8495 101 100.77%
0+ 0 nan nan -272.0103 -289.8495 nan 6.56%
0 0 -289.8495 10 -272.0103 Cuts:9 120 6.56%
0+ 0 nan nan -280.6065 -289.8495 nan 3.29%
0 0 -289.6444 17 -280.6065 Cuts:15 146 3.22%
0 0 -289.0902 20 -280.6065 Cuts:19 157 3.02%
0+ 0 nan nan -281.0413 -289.0902 nan 2.86%
0 0 -288.9931 25 -281.0413 Cuts:27 168 2.83%
0 0 -288.7563 23 -281.0413 Cuts:20 177 2.75%
0 0 -288.6435 25 -281.0413 Cuts:22 193 2.71%
0+ 0 nan nan -281.6131 -288.6435 nan 2.50%
0 0 -288.5044 26 -281.6131 Cuts:11 201 2.45%
0 0 -288.3212 24 -281.6131 Cuts:12 217 2.38%
0 0 -288.2088 28 -281.6131 Cuts:10 234 2.34%
0 0 -288.0825 26 -281.6131 LiftProj:7 246 2.30%
0 0 -288.0314 28 -281.6131 LiftProj:12 253 2.28%
0 0 -288.0225 25 -281.6131 Cuts:9 260 2.28%
0 2 -287.5372 17 -281.6131 -287.4376 260 2.07%
CPXPARAM_MIP_Cuts_Gomory-Disjunctive-LiftProj:Gomory 16
CPXPARAM_MIP_Cuts_Gomory-Disjunctive-LiftProj:Disjunctive 3
CPXPARAM_MIP_Cuts_Gomory-Disjunctive-LiftProj:LiftProj 6
19
Node Left Objective IInf Best_Integer Best_Bound ItCnt Gap
0+ 0 nan nan 38025.4807 -3802.5481 nan 110.00%
0 0 -1026.6880 21 38025.4807 -1026.6880 120 102.70%
0+ 0 nan nan -139.4268 -1026.6880 nan 636.36%
0+ 0 nan nan -876.0230 -1026.6880 nan 17.20%
0 0 -1026.6880 19 -876.0230 Cuts:5 127 17.20%
0 0 -1026.6880 22 -876.0230 Cuts:18 167 17.20%
0+ 0 nan nan -1004.1682 -1026.6880 nan 2.24%
0+ 0 nan nan -1006.1226 -1026.6880 nan 2.04%
0 2 -1026.6880 17 -1006.1226 -1026.6880 167 2.04%
CPXPARAM_MIP_Cuts_Gomory-Disjunctive-LiftProj:Gomory 0
CPXPARAM_MIP_Cuts_Gomory-Disjunctive-LiftProj:Disjunctive 0
CPXPARAM_MIP_Cuts_Gomory-Disjunctive-LiftProj:LiftProj 0
20
Node Left Objective IInf Best_Integer Best_Bound ItCnt Gap
0+ 0 nan nan 30230.0491 -3023.0049 nan 110.00%
0+ 0 nan nan -31.8492 -3023.0049 nan ---
0 0 -244.0260 13 -31.8492 -244.0260 114 666.19%
0+ 0 nan nan -225.0974 -244.0260 nan 8.41%
0 0 -244.0136 24 -225.0974 Cuts:10 153 8.40%
0 0 -243.3892 30 -225.0974 Cuts:20 175 8.13%
0 0 -243.0958 31 -225.0974 Cuts:26 195 8.00%
0+ 0 nan nan -235.2058 -243.0958 nan 3.35%
0 0 -242.9681 30 -235.2058 Cuts:18 216 3.30%
0 0 -242.7352 30 -235.2058 Cuts:18 233 3.20%
0 0 -242.7244 31 -235.2058 LiftProj:10 243 3.20%
0 0 -242.7219 27 -235.2058 LiftProj:2 246 3.20%
0+ 0 nan nan -235.5966 -242.7219 nan 3.02%
0 2 -242.6811 14 -235.5966 -242.6750 246 3.00%
CPXPARAM_MIP_Cuts_Gomory-Disjunctive-LiftProj:Gomory 10
CPXPARAM_MIP_Cuts_Gomory-Disjunctive-LiftProj:Disjunctive 8
CPXPARAM_MIP_Cuts_Gomory-Disjunctive-LiftProj:LiftProj 0
21
Node Left Objective IInf Best_Integer Best_Bound ItCnt Gap
0+ 0 nan nan 30666.8495 -3066.6850 nan 110.00%
0+ 0 nan nan -33.3052 -3066.6850 nan ---
0 0 -828.0049 23 -33.3052 -828.0049 122 ---
0+ 0 nan nan -702.5842 -828.0049 nan 17.85%
0 0 -828.0049 22 -702.5842 Fract:1 126 17.85%
0 0 -828.0049 23 -702.5842 Cuts:12 144 17.85%
0+ 0 nan nan -714.6256 -828.0049 nan 15.87%
0 0 -828.0049 24 -714.6256 Cuts:18 197 15.87%
0+ 0 nan nan -799.2577 -828.0049 nan 3.60%
0+ 0 nan nan -810.6533 -828.0049 nan 2.14%
0 2 -828.0049 21 -810.6533 -828.0049 197 2.14%
CPXPARAM_MIP_Cuts_Gomory-Disjunctive-LiftProj:Gomory 0
CPXPARAM_MIP_Cuts_Gomory-Disjunctive-LiftProj:Disjunctive 1
CPXPARAM_MIP_Cuts_Gomory-Disjunctive-LiftProj:LiftProj 0
22
Node Left Objective IInf Best_Integer Best_Bound ItCnt Gap
0+ 0 nan nan 31159.1377 -3115.9138 nan 110.00%
0+ 0 nan nan -43.0892 -3115.9138 nan ---
0 0 -253.3169 9 -43.0892 -253.3169 105 487.89%
0+ 0 nan nan -248.1698 -253.3169 nan 2.07%
0 0 -253.2942 21 -248.1698 Cuts:11 133 2.06%
0 0 -253.0262 21 -248.1698 Cuts:10 154 1.96%
0+ 0 nan nan -251.8782 -253.0262 nan 0.46%
0 0 -252.8416 21 -251.8782 Cuts:10 172 0.38%
0 0 -252.7604 19 -251.8782 Fract:4 180 0.35%
0 0 -252.6872 19 -251.8782 Cuts:8 202 0.32%
0+ 0 nan nan -251.8782 -252.6872 nan 0.32%
0 0 -252.6605 21 -251.8782 LiftProj:6 219 0.31%
0 0 -252.6507 20 -251.8782 Cuts:6 228 0.31%
0 0 -252.6472 21 -251.8782 LiftProj:5 233 0.31%
0+ 0 nan nan -251.8782 -252.6472 nan 0.31%
0 0 -252.3112 6 -251.8782 -252.3112 339 0.17%
0 0 -252.1418 6 -251.8782 Cuts:6 355 0.10%
0 0 -251.8982 4 -251.8782 Cuts:4 367 0.01%
CPXPARAM_MIP_Cuts_Gomory-Disjunctive-LiftProj:Gomory 2
CPXPARAM_MIP_Cuts_Gomory-Disjunctive-LiftProj:Disjunctive 2
CPXPARAM_MIP_Cuts_Gomory-Disjunctive-LiftProj:LiftProj 0
23
Node Left Objective IInf Best_Integer Best_Bound ItCnt Gap
0+ 0 nan nan 32197.4304 -3219.7430 nan 110.00%
0+ 0 nan nan -46.5502 -3219.7430 nan ---
0 0 -869.3306 18 -46.5502 -869.3306 127 ---
0+ 0 nan nan -332.7068 -869.3306 nan 161.29%
0+ 0 nan nan -560.8164 -869.3306 nan 55.01%
0 0 -869.3306 13 -560.8164 Cuts:2 129 55.01%
0+ 0 nan nan -765.0743 -869.3306 nan 13.63%
0 0 -869.3306 15 -765.0743 Cuts:14 151 13.63%
0 0 -869.3306 18 -765.0743 Cuts:14 192 13.63%
0+ 0 nan nan -862.1577 -869.3306 nan 0.83%
0+ 0 nan nan -864.3354 -869.3306 nan 0.58%
0 2 -869.3306 14 -864.3354 -869.3306 192 0.58%
CPXPARAM_MIP_Cuts_Gomory-Disjunctive-LiftProj:Gomory 0
CPXPARAM_MIP_Cuts_Gomory-Disjunctive-LiftProj:Disjunctive 0
CPXPARAM_MIP_Cuts_Gomory-Disjunctive-LiftProj:LiftProj 0
24
Node Left Objective IInf Best_Integer Best_Bound ItCnt Gap
0+ 0 nan nan 36872.8889 -3687.2889 nan 110.00%
0 0 -299.8887 17 36872.8889 -299.8887 109 100.81%
0+ 0 nan nan -277.2847 -299.8887 nan 8.15%
0 0 -299.8434 24 -277.2847 Cuts:14 146 8.14%
0 0 -298.9075 29 -277.2847 Cuts:25 177 7.80%
0+ 0 nan nan -285.0553 -298.9075 nan 4.86%
0 0 -298.4892 32 -285.0553 Cuts:21 196 4.71%
0+ 0 nan nan -290.2549 -298.4892 nan 2.84%
0 0 -297.9824 30 -290.2549 Cuts:30 223 2.66%
0 0 -297.6379 30 -290.2549 Cuts:27 258 2.54%
0 0 -297.6379 32 -290.2549 Cuts:9 263 2.54%
0 0 -297.5149 33 -290.2549 Cuts:20 291 2.50%
0 0 -297.4566 32 -290.2549 LiftProj:3 302 2.48%
0 0 -297.4430 33 -290.2549 LiftProj:11 312 2.48%
0+ 0 nan nan -290.2549 -297.4430 nan 2.48%
0 0 -297.0520 14 -290.2549 -297.0520 417 2.34%
0 0 -296.9742 15 -290.2549 Cuts:16 436 2.31%
0 0 -296.9192 15 -290.2549 Cuts:7 449 2.30%
0 0 -296.9192 16 -290.2549 Cuts:5 453 2.30%
0 0 -296.9162 17 -290.2549 Cuts:8 457 2.29%
0 2 -296.8918 12 -290.2549 -296.7294 457 2.23%
CPXPARAM_MIP_Cuts_Gomory-Disjunctive-LiftProj:Gomory 11
CPXPARAM_MIP_Cuts_Gomory-Disjunctive-LiftProj:Disjunctive 1
CPXPARAM_MIP_Cuts_Gomory-Disjunctive-LiftProj:LiftProj 5
25
Node Left Objective IInf Best_Integer Best_Bound ItCnt Gap
0+ 0 nan nan 37613.4338 -3761.3434 nan 110.00%
0 0 -1015.5627 24 37613.4338 -1015.5627 125 102.70%
0+ 0 nan nan -760.1720 -1015.5627 nan 33.60%
0+ 0 nan nan -993.4120 -1015.5627 nan 2.23%
0+ 0 nan nan -1004.3518 -1015.5627 nan 1.12%
0 2 -1015.5627 19 -1004.3518 -1015.5627 125 1.12%
CPXPARAM_MIP_Cuts_Gomory-Disjunctive-LiftProj:Gomory 0
CPXPARAM_MIP_Cuts_Gomory-Disjunctive-LiftProj:Disjunctive 0
CPXPARAM_MIP_Cuts_Gomory-Disjunctive-LiftProj:LiftProj 0
26
Node Left Objective IInf Best_Integer Best_Bound ItCnt Gap
0+ 0 nan nan 37114.4669 -3711.4467 nan 110.00%
0 0 -302.3044 14 37114.4669 -302.3044 115 100.81%
0+ 0 nan nan -295.0976 -302.3044 nan 2.44%
0 0 -302.3044 12 -295.0976 Cuts:5 129 2.44%
0 0 -301.7081 22 -295.0976 Cuts:14 162 2.24%
0+ 0 nan nan -295.9767 -301.7081 nan 1.94%
0 0 -301.1047 22 -295.9767 Cuts:23 181 1.73%
0 0 -300.6765 23 -295.9767 Cuts:26 202 1.59%
0+ 0 nan nan -296.0124 -300.6765 nan 1.58%
0 0 -300.1563 25 -296.0124 Cuts:24 224 1.40%
0 0 -300.0753 25 -296.0124 Cuts:16 235 1.37%
0 0 -299.9972 22 -296.0124 Cuts:8 247 1.35%
0 0 -299.9452 22 -296.0124 LiftProj:8 258 1.33%
0 0 -299.8996 24 -296.0124 LiftProj:5 266 1.31%
0 0 -299.7963 24 -296.0124 LiftProj:7 281 1.28%
0+ 0 nan nan -296.8758 -299.7963 nan 0.98%
0 0 -299.7082 25 -296.8758 LiftProj:7 290 0.95%
0 0 -299.4679 24 -296.8758 Cuts:7 302 0.87%
0 0 -299.3645 25 -296.8758 LiftProj:6 309 0.84%
0 0 -299.3536 27 -296.8758 Cuts:9 313 0.83%
0 0 -299.2327 22 -296.8758 LiftProj:7 328 0.79%
0 0 -299.1826 22 -296.8758 LiftProj:10 336 0.78%
0 0 -299.0925 23 -296.8758 LiftProj:6 348 0.75%
0 0 -299.0682 24 -296.8758 LiftProj:7 357 0.74%
0+ 0 nan nan -296.8758 -299.0682 nan 0.74%
0 0 -297.9135 9 -296.8758 -297.9135 454 0.35%
0 0 -297.6771 7 -296.8758 Cuts:5 469 0.27%
0 0 -297.5230 7 -296.8758 Cuts:8 485 0.22%
0 0 -297.4266 7 -296.8758 Cuts:6 497 0.19%
0 0 -297.3949 7 -296.8758 Cuts:7 508 0.17%
0 0 -297.3903 7 -296.8758 LiftProj:2 511 0.17%
0 0 -297.3871 7 -296.8758 LiftProj:5 513 0.17%
0 2 -297.2455 5 -296.8758 -297.2307 513 0.12%
CPXPARAM_MIP_Cuts_Gomory-Disjunctive-LiftProj:Gomory 8
CPXPARAM_MIP_Cuts_Gomory-Disjunctive-LiftProj:Disjunctive 3
CPXPARAM_MIP_Cuts_Gomory-Disjunctive-LiftProj:LiftProj 0
27
Node Left Objective IInf Best_Integer Best_Bound ItCnt Gap
0+ 0 nan nan 34215.7860 -3421.5786 nan 110.00%
0 0 -923.8262 20 34215.7860 -923.8262 128 102.70%
0+ 0 nan nan -707.7491 -923.8262 nan 30.53%
0+ 0 nan nan -811.5216 -923.8262 nan 13.84%
0+ 0 nan nan -914.5259 -923.8262 nan 1.02%
0 2 -923.8262 15 -914.5259 -923.8262 128 1.02%
CPXPARAM_MIP_Cuts_Gomory-Disjunctive-LiftProj:Gomory 0
CPXPARAM_MIP_Cuts_Gomory-Disjunctive-LiftProj:Disjunctive 0
CPXPARAM_MIP_Cuts_Gomory-Disjunctive-LiftProj:LiftProj 0
28
Node Left Objective IInf Best_Integer Best_Bound ItCnt Gap
0+ 0 nan nan 46391.8076 -4639.1808 nan 110.00%
0 0 -359.4519 17 46391.8076 -359.4519 119 100.77%
0+ 0 nan nan -334.9967 -359.4519 nan 7.30%
0 0 -359.4391 18 -334.9967 Cuts:10 147 7.30%
0 0 -358.7427 29 -334.9967 Cuts:20 179 7.09%
0+ 0 nan nan -337.4949 -358.7427 nan 6.30%
0 0 -358.0434 33 -337.4949 Cuts:43 198 6.09%
0 0 -357.5041 34 -337.4949 Cuts:43 230 5.93%
0 0 -356.7182 34 -337.4949 Cuts:44 261 5.70%
0 0 -356.7182 34 -337.4949 LiftProj:9 264 5.70%
0 0 -356.7125 34 -337.4949 LiftProj:6 268 5.69%
0+ 0 nan nan -338.7305 -356.7125 nan 5.31%
0 2 -356.7125 34 -338.7305 -356.6679 268 5.30%
CPXPARAM_MIP_Cuts_Gomory-Disjunctive-LiftProj:Gomory 8
CPXPARAM_MIP_Cuts_Gomory-Disjunctive-LiftProj:Disjunctive 0
CPXPARAM_MIP_Cuts_Gomory-Disjunctive-LiftProj:LiftProj 14
29
Node Left Objective IInf Best_Integer Best_Bound ItCnt Gap
0+ 0 nan nan 36947.3145 -3694.7314 nan 110.00%
0 0 -997.5775 25 36947.3145 -997.5775 124 102.70%
0+ 0 nan nan -979.0513 -997.5775 nan 1.89%
0 0 -997.5775 26 -979.0513 Cuts:6 151 1.89%
0 0 -997.3972 28 -979.0513 Cuts:20 215 1.87%
0 0 -996.8372 32 -979.0513 Cuts:48 238 1.82%
0 0 -996.4608 34 -979.0513 Cuts:38 268 1.78%
0 0 -996.0424 34 -979.0513 Cuts:31 317 1.74%
0+ 0 nan nan -981.4535 -996.0424 nan 1.49%
0 0 -995.9975 34 -981.4535 Cuts:9 328 1.48%
0 2 -995.9975 34 -981.4535 -995.9856 328 1.48%
CPXPARAM_MIP_Cuts_Gomory-Disjunctive-LiftProj:Gomory 5
CPXPARAM_MIP_Cuts_Gomory-Disjunctive-LiftProj:Disjunctive 0
CPXPARAM_MIP_Cuts_Gomory-Disjunctive-LiftProj:LiftProj 12
30
Node Left Objective IInf Best_Integer Best_Bound ItCnt Gap
0+ 0 nan nan 40025.0748 -4002.5075 nan 110.00%
0 0 -295.7845 13 40025.0748 -295.7845 119 100.74%
0+ 0 nan nan -286.3721 -295.7845 nan 3.29%
0 0 -295.7845 9 -286.3721 Cuts:10 139 3.29%
0+ 0 nan nan -288.3948 -295.7845 nan 2.56%
0 0 -295.6902 21 -288.3948 Cuts:14 162 2.53%
0 0 -294.8620 23 -288.3948 Cuts:24 174 2.24%
0+ 0 nan nan -289.4711 -294.8620 nan 1.86%
0 0 -294.6103 25 -289.4711 Cuts:27 189 1.78%
0+ 0 nan nan -290.5413 -294.6103 nan 1.40%
0 0 -294.3046 25 -290.5413 Cuts:23 213 1.30%
0 0 -294.2593 24 -290.5413 Cuts:4 223 1.28%
0 0 -294.2148 25 -290.5413 Cuts:9 234 1.26%
0 0 -294.1393 25 -290.5413 LiftProj:5 238 1.24%
0 0 -294.0324 26 -290.5413 Cuts:9 253 1.20%
0 0 -293.9862 23 -290.5413 LiftProj:9 260 1.19%
0 0 -293.9550 27 -290.5413 LiftProj:8 266 1.17%
0 0 -293.7496 25 -290.5413 LiftProj:9 286 1.10%
0 0 -293.7047 23 -290.5413 Cuts:8 297 1.09%
0 0 -293.6759 25 -290.5413 LiftProj:13 303 1.08%
0 2 -292.5913 12 -290.5413 -292.5682 303 0.70%
CPXPARAM_MIP_Cuts_Gomory-Disjunctive-LiftProj:Gomory 16
CPXPARAM_MIP_Cuts_Gomory-Disjunctive-LiftProj:Disjunctive 0
CPXPARAM_MIP_Cuts_Gomory-Disjunctive-LiftProj:LiftProj 3
31
Node Left Objective IInf Best_Integer Best_Bound ItCnt Gap
0+ 0 nan nan 40939.1052 -4093.9105 nan 110.00%
0 0 -1105.3558 21 40939.1052 -1105.3558 125 102.70%
0+ 0 nan nan -829.4882 -1105.3558 nan 33.26%
0 0 -1105.3558 18 -829.4882 Cuts:5 140 33.26%
0+ 0 nan nan -1095.1558 -1105.3558 nan 0.93%
0 0 -1105.3558 21 -1095.1558 Cuts:25 184 0.93%
0 0 -1105.3558 23 -1095.1558 Cuts:29 238 0.93%
0+ 0 nan nan -1097.2775 -1105.3558 nan 0.74%
0 2 -1105.3558 20 -1097.2775 -1105.3558 238 0.74%
CPXPARAM_MIP_Cuts_Gomory-Disjunctive-LiftProj:Gomory 0
CPXPARAM_MIP_Cuts_Gomory-Disjunctive-LiftProj:Disjunctive 0
CPXPARAM_MIP_Cuts_Gomory-Disjunctive-LiftProj:LiftProj 3
32
Node Left Objective IInf Best_Integer Best_Bound ItCnt Gap
0+ 0 nan nan 27822.1458 -2782.2146 nan 110.00%
0 0 -209.7516 14 27822.1458 -209.7516 106 100.75%
0+ 0 nan nan -175.4149 -209.7516 nan 19.57%
0 0 -209.6540 23 -175.4149 Cuts:22 136 19.52%
0 0 -209.0441 30 -175.4149 Cuts:24 158 19.17%
0 0 -208.8337 30 -175.4149 Cuts:34 183 19.05%
0 0 -208.6868 27 -175.4149 Cuts:34 208 18.97%
0 0 -208.6073 29 -175.4149 Cuts:31 237 18.92%
0 0 -208.5614 30 -175.4149 Cuts:14 249 18.90%
0 0 -208.5391 28 -175.4149 Cuts:7 260 18.88%
0 0 -208.5268 30 -175.4149 Cuts:12 274 18.88%
0 0 -208.4783 25 -175.4149 Cuts:5 304 18.85%
0 0 -208.4646 26 -175.4149 Cuts:11 313 18.84%
0+ 0 nan nan -199.3246 -208.4646 nan 4.59%
0 2 -208.4350 14 -199.3246 -208.3983 313 4.55%
CPXPARAM_MIP_Cuts_Gomory-Disjunctive-LiftProj:Gomory 6
CPXPARAM_MIP_Cuts_Gomory-Disjunctive-LiftProj:Disjunctive 3
CPXPARAM_MIP_Cuts_Gomory-Disjunctive-LiftProj:LiftProj 3
33
Node Left Objective IInf Best_Integer Best_Bound ItCnt Gap
0+ 0 nan nan 33496.9025 -3349.6902 nan 110.00%
0 0 -904.4164 25 33496.9025 -904.4164 130 102.70%
0+ 0 nan nan -865.0838 -904.4164 nan 4.55%
0 0 -904.4164 22 -865.0838 Cuts:2 133 4.55%
0 0 -904.4164 22 -865.0838 Cuts:28 174 4.55%
0 0 -904.4164 24 -865.0838 Cuts:29 205 4.55%
0+ 0 nan nan -880.7996 -904.4164 nan 2.68%
0 2 -904.4164 21 -880.7996 -904.4164 205 2.68%
CPXPARAM_MIP_Cuts_Gomory-Disjunctive-LiftProj:Gomory 0
CPXPARAM_MIP_Cuts_Gomory-Disjunctive-LiftProj:Disjunctive 0
CPXPARAM_MIP_Cuts_Gomory-Disjunctive-LiftProj:LiftProj 2
34
Node Left Objective IInf Best_Integer Best_Bound ItCnt Gap
0+ 0 nan nan 38110.0204 -3811.0020 nan 110.00%
0 0 -312.6304 12 38110.0204 -312.6304 122 100.82%
0+ 0 nan nan -175.2687 -312.6304 nan 78.37%
0 0 -312.6304 15 -175.2687 Cuts:12 150 78.37%
0 0 -312.0002 23 -175.2687 Cuts:17 191 78.01%
0+ 0 nan nan -178.4578 -312.0002 nan 74.83%
0 0 -311.4792 26 -178.4578 Cuts:13 212 74.54%
0 0 -311.2351 26 -178.4578 Cuts:21 234 74.40%
0 0 -310.7650 29 -178.4578 Cuts:16 255 74.14%
0 0 -310.5166 30 -178.4578 Cuts:16 270 74.00%
0 0 -310.3515 28 -178.4578 Cuts:12 291 73.91%
0 0 -310.1934 30 -178.4578 Cuts:13 303 73.82%
0 0 -309.8910 30 -178.4578 LiftProj:14 314 73.65%
0 0 -309.6920 30 -178.4578 LiftProj:11 320 73.54%
0 0 -309.4438 30 -178.4578 LiftProj:13 336 73.40%
0 0 -309.3123 32 -178.4578 LiftProj:14 343 73.33%
0 0 -309.0221 32 -178.4578 LiftProj:9 351 73.16%
0 0 -308.5342 29 -178.4578 Cuts:16 369 72.89%
0 0 -308.4475 31 -178.4578 LiftProj:17 378 72.84%
0 0 -308.2650 30 -178.4578 LiftProj:13 390 72.74%
0 0 -308.0713 30 -178.4578 LiftProj:13 401 72.63%
0 0 -307.8645 30 -178.4578 LiftProj:17 418 72.51%
0 0 -307.5908 31 -178.4578 LiftProj:10 429 72.36%
0 0 -307.4037 31 -178.4578 LiftProj:11 445 72.26%
0 0 -307.2853 31 -178.4578 LiftProj:9 459 72.19%
0 0 -307.1414 31 -178.4578 LiftProj:14 474 72.11%
0 0 -307.0052 33 -178.4578 LiftProj:10 482 72.03%
0 0 -306.6938 32 -178.4578 LiftProj:9 504 71.86%
0 0 -306.5894 31 -178.4578 LiftProj:14 516 71.80%
0 0 -306.5404 32 -178.4578 LiftProj:12 524 71.77%
0+ 0 nan nan -296.5777 -306.5404 nan 3.36%
0 2 -306.5404 31 -296.5777 -306.5055 524 3.35%
CPXPARAM_MIP_Cuts_Gomory-Disjunctive-LiftProj:Gomory 28
CPXPARAM_MIP_Cuts_Gomory-Disjunctive-LiftProj:Disjunctive 0
CPXPARAM_MIP_Cuts_Gomory-Disjunctive-LiftProj:LiftProj 0
35
Node Left Objective IInf Best_Integer Best_Bound ItCnt Gap
0+ 0 nan nan 33566.4825 -3356.6483 nan 110.00%
0 0 -906.2950 21 33566.4825 -906.2950 126 102.70%
0+ 0 nan nan -885.1752 -906.2950 nan 2.39%
0+ 0 nan nan -887.9717 -906.2950 nan 2.06%
0 2 -906.2950 17 -887.9717 -906.2950 126 2.06%
CPXPARAM_MIP_Cuts_Gomory-Disjunctive-LiftProj:Gomory 0
CPXPARAM_MIP_Cuts_Gomory-Disjunctive-LiftProj:Disjunctive 0
CPXPARAM_MIP_Cuts_Gomory-Disjunctive-LiftProj:LiftProj 0
36
Node Left Objective IInf Best_Integer Best_Bound ItCnt Gap
0+ 0 nan nan 45883.4930 -4588.3493 nan 110.00%
0 0 -377.7957 15 45883.4930 -377.7957 107 100.82%
0+ 0 nan nan -345.5921 -377.7957 nan 9.32%
0 0 -377.7957 21 -345.5921 Cuts:13 139 9.32%
0 0 -376.5842 29 -345.5921 Cuts:25 192 8.97%
0 0 -376.0295 32 -345.5921 Cuts:38 223 8.81%
0+ 0 nan nan -347.0026 -376.0295 nan 8.37%
0 0 -375.4985 31 -347.0026 Cuts:45 266 8.21%
0+ 0 nan nan -357.2356 -375.4985 nan 5.11%
0 0 -375.0229 32 -357.2356 Cuts:38 303 4.98%
0 0 -374.9825 32 -357.2356 Cuts:12 317 4.97%
0 0 -374.9160 33 -357.2356 Cuts:15 328 4.95%
0 0 -374.8617 37 -357.2356 Cuts:21 340 4.93%
0 0 -374.7316 35 -357.2356 Cuts:18 359 4.90%
0 0 -374.5547 34 -357.2356 Cuts:18 373 4.85%
0 0 -374.4908 35 -357.2356 LiftProj:14 382 4.83%
0 0 -374.4581 34 -357.2356 LiftProj:12 392 4.82%
0+ 0 nan nan -357.3209 -374.4581 nan 4.80%
0+ 0 nan nan -359.1278 -374.4581 nan 4.27%
0 2 -374.4581 34 -359.1278 -374.4016 392 4.25%
CPXPARAM_MIP_Cuts_Gomory-Disjunctive-LiftProj:Gomory 22
CPXPARAM_MIP_Cuts_Gomory-Disjunctive-LiftProj:Disjunctive 0
CPXPARAM_MIP_Cuts_Gomory-Disjunctive-LiftProj:LiftProj 3
37
Node Left Objective IInf Best_Integer Best_Bound ItCnt Gap
0+ 0 nan nan 44507.5424 -4450.7542 nan 110.00%
0 0 -1201.7036 26 44507.5424 -1201.7036 140 102.70%
0+ 0 nan nan -1008.4131 -1201.7036 nan 19.17%
0 0 -1201.7036 21 -1008.4131 Cuts:7 173 19.17%
0 0 -1201.7036 29 -1008.4131 Cuts:34 231 19.17%
0+ 0 nan nan -1021.3434 -1201.7036 nan 17.66%
0+ 0 nan nan -1031.0389 -1201.7036 nan 16.55%
0+ 0 nan nan -1171.9886 -1201.7036 nan 2.54%
0 2 -1201.7036 21 -1171.9886 -1201.7036 231 2.54%
CPXPARAM_MIP_Cuts_Gomory-Disjunctive-LiftProj:Gomory 0
CPXPARAM_MIP_Cuts_Gomory-Disjunctive-LiftProj:Disjunctive 1
CPXPARAM_MIP_Cuts_Gomory-Disjunctive-LiftProj:LiftProj 0
38
Node Left Objective IInf Best_Integer Best_Bound ItCnt Gap
0+ 0 nan nan 38248.3521 -3824.8352 nan 110.00%
0 0 -301.4443 11 38248.3521 -301.4443 110 100.79%
0+ 0 nan nan -290.9742 -301.4443 nan 3.60%
0 0 -301.4443 12 -290.9742 Cuts:5 122 3.60%
0 0 -301.3948 20 -290.9742 Cuts:8 146 3.58%
0 0 -300.8732 24 -290.9742 Cuts:28 168 3.40%
0 0 -300.5017 22 -290.9742 Cuts:35 195 3.27%
0+ 0 nan nan -294.1839 -300.5017 nan 2.15%
0 0 -300.3895 24 -294.1839 Cuts:28 216 2.11%
0 0 -300.3068 24 -294.1839 Cuts:18 225 2.08%
0 0 -300.1162 25 -294.1839 Cuts:12 250 2.02%
0 0 -300.0889 28 -294.1839 LiftProj:15 265 2.01%
0 0 -300.0491 27 -294.1839 Cuts:10 277 1.99%
0 0 -300.0033 29 -294.1839 LiftProj:10 285 1.98%
0 0 -299.8838 29 -294.1839 LiftProj:13 296 1.94%
0 0 -299.8523 28 -294.1839 LiftProj:11 304 1.93%
0+ 0 nan nan -294.6214 -299.8523 nan 1.78%
0+ 0 nan nan -294.6214 -299.8523 nan 1.78%
0 0 -299.2840 11 -294.6214 -299.2840 418 1.58%
0 0 -298.9808 11 -294.6214 Cuts:21 432 1.48%
0+ 0 nan nan -295.5837 -298.9808 nan 1.15%
0 0 -298.8927 11 -295.5837 LiftProj:7 441 1.12%
0+ 0 nan nan -295.8956 -298.8927 nan 1.01%
0 0 -298.8215 11 -295.8956 LiftProj:7 447 0.99%
0 0 -298.7290 11 -295.8956 LiftProj:7 456 0.96%
0+ 0 nan nan -296.5875 -298.7290 nan 0.72%
0 0 -298.3806 12 -296.5875 LiftProj:7 474 0.60%
0 0 -298.1688 11 -296.5875 LiftProj:8 487 0.53%
0 0 -298.0021 10 -296.5875 LiftProj:6 505 0.48%
0 0 -297.9979 10 -296.5875 LiftProj:7 509 0.48%
0 0 -297.8416 10 -296.5875 LiftProj:6 521 0.42%
0 0 -297.8099 10 -296.5875 LiftProj:5 529 0.41%
0 2 -297.6879 8 -296.5875 -297.6567 529 0.36%
CPXPARAM_MIP_Cuts_Gomory-Disjunctive-LiftProj:Gomory 17
CPXPARAM_MIP_Cuts_Gomory-Disjunctive-LiftProj:Disjunctive 0
CPXPARAM_MIP_Cuts_Gomory-Disjunctive-LiftProj:LiftProj 0
39
Node Left Objective IInf Best_Integer Best_Bound ItCnt Gap
0+ 0 nan nan 45236.5952 -4523.6595 nan 110.00%
0 0 -1221.3881 20 45236.5952 -1221.3881 136 102.70%
0+ 0 nan nan -646.1394 -1221.3881 nan 89.03%
0 0 -1221.3881 15 -646.1394 Cuts:3 144 89.03%
0+ 0 nan nan -1072.1577 -1221.3881 nan 13.92%
0 0 -1221.3881 18 -1072.1577 Cuts:19 170 13.92%
0 0 -1221.3881 15 -1072.1577 Disjcuts:1 175 13.92%
0 0 -1221.3881 17 -1072.1577 Cuts:20 212 13.92%
0+ 0 nan nan -1206.9605 -1221.3881 nan 1.20%
0+ 0 nan nan -1209.2387 -1221.3881 nan 1.00%
0 2 -1221.3881 15 -1209.2387 -1221.3881 212 1.00%
CPXPARAM_MIP_Cuts_Gomory-Disjunctive-LiftProj:Gomory 0
CPXPARAM_MIP_Cuts_Gomory-Disjunctive-LiftProj:Disjunctive 1
CPXPARAM_MIP_Cuts_Gomory-Disjunctive-LiftProj:LiftProj 0
